data/solutions/recovery/wellformed/moderate/flexible/wellformed_moderate_instance64/46.sol
Elapsed time: 100.12
Upper bound: 4862.0
Planning weighted value: 130701.0
C[0]=4862.0
C[1]=4861.0
C[2]=4861.0
C[3]=4860.0
C[4]=0.0
y[0]=1
y[1]=3
y[2]=1
y[3]=2
y[4]=2
y[5]=1
y[6]=0
y[7]=1
y[8]=2
y[9]=2
y[10]=2
y[11]=3
y[12]=2
y[13]=2
y[14]=1
y[15]=3
y[16]=1
y[17]=3
y[18]=1
y[19]=0
y[20]=0
y[21]=3
y[22]=2
y[23]=0
y[24]=1
y[25]=0
y[26]=2
y[27]=2
y[28]=0
y[29]=0
y[30]=2
y[31]=3
y[32]=2
y[33]=2
y[34]=2
y[35]=2
y[36]=2
y[37]=3
y[38]=0
y[39]=0
y[40]=3
