data/solutions/recovery/wellformed/moderate/flexible/wellformed_moderate_instance64/46.log

Log started (V12.6.3.0) Fri Apr 20 20:27:31 2018

New value for default parallel thread count: 1

Problem '/tmp/tmpxrXjwY.pyomo.lp' read.
Read time = 0.00 sec. (0.09 ticks)

Problem name         : /tmp/tmpxrXjwY.pyomo.lp
Objective sense      : Minimize
Variables            :     212  [Nneg: 1,  Binary: 205,  General Integer: 6]
Objective nonzeros   :       1
Linear constraints   :      94  [Less: 46,  Equal: 48]
  Nonzeros           :    6187
  RHS nonzeros       :      83

Variables            : Min LB: 0.000000         Max UB: 1.000000       
Objective nonzeros   : Min   : 1.000000         Max   : 1.000000       
Linear constraints   :
  Nonzeros           : Min   : 1.000000         Max   : 1963.000       
  RHS nonzeros       : Min   : 1.000000         Max   : 5.000000       
Tried aggregator 2 times.
MIP Presolve eliminated 45 rows and 56 columns.
Aggregator did 7 substitutions.
Reduced MIP has 42 rows, 149 columns, and 396 nonzeros.
Reduced MIP has 148 binaries, 1 generals, 0 SOSs, and 0 indicators.
Presolve time = 0.00 sec. (1.49 ticks)
Found incumbent of value 19444.000000 after 0.00 sec. (1.81 ticks)
Probing time = 0.00 sec. (0.12 ticks)
Cover probing fixed 0 vars, tightened 6 bounds.
Tried aggregator 1 time.
Reduced MIP has 42 rows, 149 columns, and 396 nonzeros.
Reduced MIP has 148 binaries, 1 generals, 0 SOSs, and 0 indicators.
Presolve time = 0.00 sec. (0.27 ticks)
Probing time = 0.00 sec. (0.08 ticks)
Clique table members: 37.
MIP emphasis: balance optimality and feasibility.
MIP search method: dynamic search.
Parallel mode: none, using 1 thread.
Root relaxation solution time = 0.00 sec. (0.12 ticks)

        Nodes                                         Cuts/
   Node  Left     Objective  IInf  Best Integer    Best Bound    ItCnt     Gap

*     0+    0                        19444.0000     1963.0000            89.90%
      0     0     4861.0000     6    19444.0000     4861.0000        7   75.00%
*     0+    0                         5481.0000     4861.0000            11.31%
      0     0     4861.0000     9     5481.0000      Fract: 3       16   11.31%
*     0+    0                         5332.0000     4861.0000             8.83%
      0     0     4861.0000     8     5332.0000       Cuts: 5       19    8.83%
*     0+    0                         5149.0000     4861.0000             5.59%
*     0+    0                         5005.0000     4861.0000             2.88%
      0     2     4861.0000     8     5005.0000     4861.0000       19    2.88%
Elapsed time = 0.01 sec. (5.98 ticks, tree = 0.01 MB, solutions = 5)
*    45    41      integral     0     4989.0000     4861.0000      157    2.57%
*    90+   62                         4980.0000     4861.0000             2.39%
*   120+   85                         4966.0000     4861.0000             2.11%
*   167   112      integral     0     4959.0000     4861.0000      437    1.98%
*   180   112      integral     0     4931.0000     4861.0000      456    1.42%
*   268   153      integral     0     4910.0000     4861.0000      638    1.00%
*   349   193      integral     0     4905.0000     4861.0000      829    0.90%
*   510   248      integral     0     4881.0000     4861.0000     1177    0.41%
*   660+  258                         4880.0000     4861.0000             0.39%
*   960+  357                         4879.0000     4861.0000             0.37%
*  1019   362      integral     0     4878.0000     4861.0000     2169    0.35%
*  1046   355      integral     0     4872.0000     4861.0000     2219    0.23%
*  1138   369      integral     0     4870.0000     4861.0000     2454    0.18%
*  2531+  347                         4869.0000     4861.0000             0.16%
*  2531+  288                         4868.0000     4861.0000             0.14%
*  2731+  296                         4864.0000     4861.0000             0.06%
   2731   298     4861.0000     5     4864.0000     4861.0000     5574    0.06%
   2732   299     4863.0000     4     4864.0000     4861.0000     5577    0.06%
   2733   300     4863.0000     4     4864.0000     4861.0000     5578    0.06%
   2734   301     4863.0000     4     4864.0000     4861.0000     5580    0.06%
   2735   301     4863.0000     4     4864.0000     4861.0000     5582    0.06%
   2736   301     4863.0000     4     4864.0000     4861.0000     5583    0.06%
   2737   300     4863.0000     4     4864.0000     4861.0000     5584    0.06%
   2738   300     4863.0000     4     4864.0000     4861.0000     5585    0.06%
   2739   300     4863.0000     4     4864.0000     4861.0000     5586    0.06%
   7899  3671     4861.0000     5     4864.0000     4861.0000    14240    0.06%
Elapsed time = 1.16 sec. (959.83 ticks, tree = 1.00 MB, solutions = 21)
* 18646  7798      integral     0     4862.0000     4861.0000    33881    0.02%
  22452  8196     4861.0000     7     4862.0000     4861.0000    40925    0.02%
  22453  8197     4861.0000     8     4862.0000     4861.0000    40926    0.02%
  22454  8198     4861.0000     6     4862.0000     4861.0000    40927    0.02%
  22455  8199     4861.0000     6     4862.0000     4861.0000    40928    0.02%
  22456  8200     4861.0000     6     4862.0000     4861.0000    40929    0.02%
  22457  8201     4861.0000     6     4862.0000     4861.0000    40930    0.02%
  22458  8202     4861.0000     6     4862.0000     4861.0000    40931    0.02%
  22459  8203     4861.0000     6     4862.0000     4861.0000    40932    0.02%
  22460  8204     4861.0000     6     4862.0000     4861.0000    40933    0.02%
  22461  8205     4861.0000     6     4862.0000     4861.0000    40934    0.02%
Elapsed time = 2.46 sec. (1913.84 ticks, tree = 2.43 MB, solutions = 22)
  42167 13874     4861.0000     5     4862.0000     4861.0000    74631    0.02%
  42168 13875     4861.0000     6     4862.0000     4861.0000    74632    0.02%
  42169 13876     4861.0000     6     4862.0000     4861.0000    74633    0.02%
  42170 13877     4861.0000     7     4862.0000     4861.0000    74637    0.02%
  42171 13878     4861.0000     6     4862.0000     4861.0000    74638    0.02%
  42172 13879     4861.0000     6     4862.0000     4861.0000    74639    0.02%
  42173 13880     4861.0000     6     4862.0000     4861.0000    74640    0.02%
  42174 13879    infeasible           4862.0000     4861.0000    74644    0.02%
  42175 13880     4861.0000     6     4862.0000     4861.0000    74645    0.02%
  42176 13881     4861.0000     6     4862.0000     4861.0000    74646    0.02%
Elapsed time = 3.66 sec. (2867.85 ticks, tree = 3.79 MB, solutions = 22)
  60615 16964    infeasible           4862.0000     4861.0000   106239    0.02%
  60616 16965     4861.0000     6     4862.0000     4861.0000   106240    0.02%
  60617 16966     4861.0000     6     4862.0000     4861.0000   106241    0.02%
  60618 16967     4861.0000     6     4862.0000     4861.0000   106243    0.02%
  60619 16968     4861.0000     6     4862.0000     4861.0000   106244    0.02%
  60620 16969     4861.0000     6     4862.0000     4861.0000   106245    0.02%
  60621 16970     4861.0000     6     4862.0000     4861.0000   106246    0.02%
  60622 16971     4861.0000     6     4862.0000     4861.0000   106247    0.02%
  60623 16972     4861.0000     6     4862.0000     4861.0000   106248    0.02%
  60624 16973     4861.0000     6     4862.0000     4861.0000   106249    0.02%
Elapsed time = 4.87 sec. (3821.75 ticks, tree = 4.99 MB, solutions = 22)
  79564 21865    infeasible           4862.0000     4861.0000   141297    0.02%
  79565 21864    infeasible           4862.0000     4861.0000   141298    0.02%
  79566 21863    infeasible           4862.0000     4861.0000   141301    0.02%
  79567 21862    infeasible           4862.0000     4861.0000   141304    0.02%
  79568 21861    infeasible           4862.0000     4861.0000   141305    0.02%
  79569 21860    infeasible           4862.0000     4861.0000   141309    0.02%
  79570 21859    infeasible           4862.0000     4861.0000   141309    0.02%
  79571 21858    infeasible           4862.0000     4861.0000   141313    0.02%
  79572 21857    infeasible           4862.0000     4861.0000   141315    0.02%
  79573 21856    infeasible           4862.0000     4861.0000   141315    0.02%
Elapsed time = 6.06 sec. (4775.96 ticks, tree = 6.17 MB, solutions = 22)
  94983 23991    infeasible           4862.0000     4861.0000   167929    0.02%
  94984 23990    infeasible           4862.0000     4861.0000   167929    0.02%
  94985 23989    infeasible           4862.0000     4861.0000   167929    0.02%
  94986 23988    infeasible           4862.0000     4861.0000   167935    0.02%
  94987 23987    infeasible           4862.0000     4861.0000   167935    0.02%
  94988 23986    infeasible           4862.0000     4861.0000   167935    0.02%
  94989 23985    infeasible           4862.0000     4861.0000   167935    0.02%
  94990 23984    infeasible           4862.0000     4861.0000   167938    0.02%
  94991 23983    infeasible           4862.0000     4861.0000   167938    0.02%
  94992 23982    infeasible           4862.0000     4861.0000   167938    0.02%
Elapsed time = 7.28 sec. (5729.89 ticks, tree = 6.69 MB, solutions = 22)
 110259 26070    infeasible           4862.0000     4861.0000   194438    0.02%
 110260 26069    infeasible           4862.0000     4861.0000   194440    0.02%
 110261 26070     4861.0000     8     4862.0000     4861.0000   194442    0.02%
 110262 26071     4861.0000     8     4862.0000     4861.0000   194443    0.02%
 110263 26072     4861.0000     8     4862.0000     4861.0000   194444    0.02%
 110264 26073     4861.0000     6     4862.0000     4861.0000   194445    0.02%
 110265 26074     4861.0000     6     4862.0000     4861.0000   194446    0.02%
 110266 26075     4861.0000     6     4862.0000     4861.0000   194447    0.02%
 110267 26076     4861.0000     6     4862.0000     4861.0000   194448    0.02%
 110268 26077     4861.0000     6     4862.0000     4861.0000   194449    0.02%
Elapsed time = 8.50 sec. (6684.00 ticks, tree = 7.22 MB, solutions = 22)
 126943 28161     4861.0000     5     4862.0000     4861.0000   222987    0.02%
 126944 28162     4861.0000     6     4862.0000     4861.0000   222989    0.02%
 126945 28163     4861.0000     6     4862.0000     4861.0000   222990    0.02%
 126946 28164     4861.0000     6     4862.0000     4861.0000   222991    0.02%
 126947 28165     4861.0000     6     4862.0000     4861.0000   222992    0.02%
 126948 28166     4861.0000     6     4862.0000     4861.0000   222993    0.02%
 126949 28167     4861.0000     6     4862.0000     4861.0000   222994    0.02%
 126950 28168     4861.0000     6     4862.0000     4861.0000   222995    0.02%
 126951 28169     4861.0000     6     4862.0000     4861.0000   222996    0.02%
 126952 28170     4861.0000     6     4862.0000     4861.0000   222997    0.02%
Elapsed time = 9.72 sec. (7637.96 ticks, tree = 7.75 MB, solutions = 22)
 143755 30976    infeasible           4862.0000     4861.0000   252482    0.02%
 143756 30975    infeasible           4862.0000     4861.0000   252484    0.02%
 143757 30974    infeasible           4862.0000     4861.0000   252487    0.02%
 143758 30973    infeasible           4862.0000     4861.0000   252490    0.02%
 143759 30972    infeasible           4862.0000     4861.0000   252490    0.02%
 143760 30971    infeasible           4862.0000     4861.0000   252490    0.02%
 143761 30970    infeasible           4862.0000     4861.0000   252490    0.02%
 143762 30969    infeasible           4862.0000     4861.0000   252495    0.02%
 143763 30968    infeasible           4862.0000     4861.0000   252500    0.02%
 143764 30967    infeasible           4862.0000     4861.0000   252505    0.02%
Elapsed time = 10.93 sec. (8592.33 ticks, tree = 8.44 MB, solutions = 22)
 161211 34920    infeasible           4862.0000     4861.0000   283271    0.02%
 161212 34919    infeasible           4862.0000     4861.0000   283272    0.02%
 161213 34918    infeasible           4862.0000     4861.0000   283273    0.02%
 161214 34917    infeasible           4862.0000     4861.0000   283274    0.02%
 161215 34916    infeasible           4862.0000     4861.0000   283277    0.02%
 161216 34915    infeasible           4862.0000     4861.0000   283283    0.02%
 161217 34914    infeasible           4862.0000     4861.0000   283285    0.02%
 161218 34915     4861.0000     5     4862.0000     4861.0000   283288    0.02%
 161219 34916     4861.0000     5     4862.0000     4861.0000   283289    0.02%
 216810 46803     4861.0000     8     4862.0000     4861.0000   390250    0.02%
Elapsed time = 15.72 sec. (12407.09 ticks, tree = 13.26 MB, solutions = 22)
 282729 58256    infeasible           4862.0000     4861.0000   516993    0.02%
 282730 58257     4861.0000     6     4862.0000     4861.0000   516994    0.02%
 282731 58258     4861.0000     6     4862.0000     4861.0000   516995    0.02%
 282732 58259     4861.0000     6     4862.0000     4861.0000   516997    0.02%
 282733 58260     4861.0000     6     4862.0000     4861.0000   516998    0.02%
 282734 58261     4861.0000     6     4862.0000     4861.0000   516999    0.02%
 282735 58262     4861.0000     6     4862.0000     4861.0000   517000    0.02%
 282736 58263     4861.0000     6     4862.0000     4861.0000   517001    0.02%
 282737 58262    infeasible           4862.0000     4861.0000   517003    0.02%
 282738 58263     4861.0000     6     4862.0000     4861.0000   517004    0.02%
Elapsed time = 20.53 sec. (16222.10 ticks, tree = 16.06 MB, solutions = 22)
 345193 67046    infeasible           4862.0000     4861.0000   639231    0.02%
 345194 67047     4861.0000     8     4862.0000     4861.0000   639233    0.02%
 345195 67048     4861.0000     6     4862.0000     4861.0000   639234    0.02%
 345196 67047    infeasible           4862.0000     4861.0000   639234    0.02%
 345197 67046    infeasible           4862.0000     4861.0000   639238    0.02%
 345198 67045    infeasible           4862.0000     4861.0000   639241    0.02%
 345199 67044    infeasible           4862.0000     4861.0000   639245    0.02%
 345200 67043    infeasible           4862.0000     4861.0000   639252    0.02%
 345201 67042    infeasible           4862.0000     4861.0000   639254    0.02%
 345202 67041    infeasible           4862.0000     4861.0000   639257    0.02%
Elapsed time = 25.25 sec. (20037.36 ticks, tree = 20.11 MB, solutions = 22)
 411225 77600     4861.0000     6     4862.0000     4861.0000   766811    0.02%
 411226 77601     4861.0000     6     4862.0000     4861.0000   766812    0.02%
 411227 77602     4861.0000     6     4862.0000     4861.0000   766813    0.02%
 411228 77603     4861.0000     6     4862.0000     4861.0000   766814    0.02%
 411229 77604     4861.0000     6     4862.0000     4861.0000   766815    0.02%
 411230 77605     4861.0000     6     4862.0000     4861.0000   766816    0.02%
 411231 77606     4861.0000     6     4862.0000     4861.0000   766817    0.02%
 411232 77607     4861.0000     6     4862.0000     4861.0000   766818    0.02%
 411233 77608     4861.0000     6     4862.0000     4861.0000   766819    0.02%
 411234 77609     4861.0000     6     4862.0000     4861.0000   766820    0.02%
Elapsed time = 30.04 sec. (23852.47 ticks, tree = 22.67 MB, solutions = 22)
 476754 86693     4861.0000     6     4862.0000     4861.0000   891745    0.02%
 476755 86694     4861.0000     5     4862.0000     4861.0000   891746    0.02%
 476756 86695     4861.0000     6     4862.0000     4861.0000   891747    0.02%
 476757 86696     4861.0000     6     4862.0000     4861.0000   891748    0.02%
 476758 86697     4861.0000     6     4862.0000     4861.0000   891749    0.02%
 476759 86698     4861.0000     6     4862.0000     4861.0000   891750    0.02%
 476760 86699     4861.0000     6     4862.0000     4861.0000   891751    0.02%
 476761 86700     4861.0000     6     4862.0000     4861.0000   891752    0.02%
 476762 86701     4861.0000     6     4862.0000     4861.0000   891753    0.02%
 476763 86702     4861.0000     6     4862.0000     4861.0000   891754    0.02%
Elapsed time = 34.79 sec. (27667.49 ticks, tree = 24.87 MB, solutions = 22)
 544774 97027    infeasible           4862.0000     4861.0000  1024088    0.02%
 544775 97026    infeasible           4862.0000     4861.0000  1024094    0.02%
 544776 97025    infeasible           4862.0000     4861.0000  1024098    0.02%
 544777 97024    infeasible           4862.0000     4861.0000  1024101    0.02%
 544778 97023    infeasible           4862.0000     4861.0000  1024107    0.02%
 544779 97022    infeasible           4862.0000     4861.0000  1024111    0.02%
 544780 97021    infeasible           4862.0000     4861.0000  1024117    0.02%
 544781 97020    infeasible           4862.0000     4861.0000  1024123    0.02%
 544782 97019    infeasible           4862.0000     4861.0000  1024128    0.02%
 544783 97018    infeasible           4862.0000     4861.0000  1024134    0.02%
Elapsed time = 39.52 sec. (31483.74 ticks, tree = 27.36 MB, solutions = 22)
 609362 106199     4861.0000     8     4862.0000     4861.0000  1149717    0.02%
 609363 106200     4861.0000     6     4862.0000     4861.0000  1149718    0.02%
 609364 106201     4861.0000     6     4862.0000     4861.0000  1149720    0.02%
 609365 106202     4861.0000     6     4862.0000     4861.0000  1149721    0.02%
 609366 106203     4861.0000     6     4862.0000     4861.0000  1149722    0.02%
 609367 106204     4861.0000     6     4862.0000     4861.0000  1149723    0.02%
 609368 106205     4861.0000     6     4862.0000     4861.0000  1149724    0.02%
 609369 106206     4861.0000     6     4862.0000     4861.0000  1149725    0.02%
 609370 106207     4861.0000     6     4862.0000     4861.0000  1149726    0.02%
 609371 106208     4861.0000     6     4862.0000     4861.0000  1149727    0.02%
Elapsed time = 44.70 sec. (35298.90 ticks, tree = 29.57 MB, solutions = 22)
 673792 114829    infeasible           4862.0000     4861.0000  1275285    0.02%
 673793 114828    infeasible           4862.0000     4861.0000  1275288    0.02%
 673794 114827    infeasible           4862.0000     4861.0000  1275291    0.02%
 673795 114826    infeasible           4862.0000     4861.0000  1275294    0.02%
 673796 114825    infeasible           4862.0000     4861.0000  1275297    0.02%
 673797 114824    infeasible           4862.0000     4861.0000  1275297    0.02%
 673798 114823    infeasible           4862.0000     4861.0000  1275300    0.02%
 673799 114822    infeasible           4862.0000     4861.0000  1275300    0.02%
 673800 114821    infeasible           4862.0000     4861.0000  1275301    0.02%
 673801 114820    infeasible           4862.0000     4861.0000  1275301    0.02%
Elapsed time = 49.31 sec. (39114.49 ticks, tree = 31.63 MB, solutions = 22)
 738548 123643    infeasible           4862.0000     4861.0000  1402800    0.02%
 738549 123642    infeasible           4862.0000     4861.0000  1402805    0.02%
 738550 123641    infeasible           4862.0000     4861.0000  1402809    0.02%
 738551 123640    infeasible           4862.0000     4861.0000  1402812    0.02%
 738552 123639    infeasible           4862.0000     4861.0000  1402813    0.02%
 738553 123638    infeasible           4862.0000     4861.0000  1402819    0.02%
 738554 123637    infeasible           4862.0000     4861.0000  1402819    0.02%
 738555 123638     4861.0000     6     4862.0000     4861.0000  1402820    0.02%
 738556 123639     4861.0000     6     4862.0000     4861.0000  1402821    0.02%
 738557 123640     4861.0000     7     4862.0000     4861.0000  1402824    0.02%
Elapsed time = 54.05 sec. (42929.91 ticks, tree = 33.77 MB, solutions = 22)
 804008 131714     4861.0000     6     4862.0000     4861.0000  1527439    0.02%
 804009 131715     4861.0000     6     4862.0000     4861.0000  1527440    0.02%
 804010 131716     4861.0000     6     4862.0000     4861.0000  1527441    0.02%
 804011 131717     4861.0000     6     4862.0000     4861.0000  1527442    0.02%
 804012 131718     4861.0000     6     4862.0000     4861.0000  1527443    0.02%
 804013 131719     4861.0000     6     4862.0000     4861.0000  1527445    0.02%
 804014 131720     4861.0000     6     4862.0000     4861.0000  1527446    0.02%
 804015 131719    infeasible           4862.0000     4861.0000  1527449    0.02%
 804016 131718    infeasible           4862.0000     4861.0000  1527453    0.02%
 804017 131717    infeasible           4862.0000     4861.0000  1527457    0.02%
Elapsed time = 58.77 sec. (46744.94 ticks, tree = 37.41 MB, solutions = 22)
 869153 141299     4861.0000     5     4862.0000     4861.0000  1655712    0.02%
 869154 141300     4861.0000     6     4862.0000     4861.0000  1655714    0.02%
 869155 141299    infeasible           4862.0000     4861.0000  1655720    0.02%
 869156 141300     4861.0000     6     4862.0000     4861.0000  1655721    0.02%
 869157 141301     4861.0000     6     4862.0000     4861.0000  1655722    0.02%
 869158 141302     4861.0000     6     4862.0000     4861.0000  1655723    0.02%
 869159 141303     4861.0000     6     4862.0000     4861.0000  1655724    0.02%
 869160 141304     4861.0000     6     4862.0000     4861.0000  1655725    0.02%
 869161 141305     4861.0000     6     4862.0000     4861.0000  1655726    0.02%
 869162 141306     4861.0000     6     4862.0000     4861.0000  1655727    0.02%
Elapsed time = 63.50 sec. (50560.51 ticks, tree = 39.72 MB, solutions = 22)
 935229 150355    infeasible           4862.0000     4861.0000  1786336    0.02%
 935230 150354    infeasible           4862.0000     4861.0000  1786341    0.02%
 935231 150353    infeasible           4862.0000     4861.0000  1786343    0.02%
 935232 150352    infeasible           4862.0000     4861.0000  1786348    0.02%
 935233 150351    infeasible           4862.0000     4861.0000  1786348    0.02%
 935234 150350    infeasible           4862.0000     4861.0000  1786348    0.02%
 935235 150349    infeasible           4862.0000     4861.0000  1786350    0.02%
 935236 150348    infeasible           4862.0000     4861.0000  1786351    0.02%
 935237 150347    infeasible           4862.0000     4861.0000  1786351    0.02%
 935238 150346    infeasible           4862.0000     4861.0000  1786353    0.02%
Elapsed time = 68.23 sec. (54376.18 ticks, tree = 41.96 MB, solutions = 22)
 999631 159307     4861.0000     4     4862.0000     4861.0000  1914237    0.02%
 999632 159308     4861.0000     4     4862.0000     4861.0000  1914239    0.02%
 999633 159309     4861.0000     8     4862.0000     4861.0000  1914241    0.02%
 999634 159310     4861.0000     6     4862.0000     4861.0000  1914244    0.02%
 999635 159311     4861.0000     6     4862.0000     4861.0000  1914245    0.02%
 999636 159310    infeasible           4862.0000     4861.0000  1914250    0.02%
 999637 159309    infeasible           4862.0000     4861.0000  1914253    0.02%
 999638 159308    infeasible           4862.0000     4861.0000  1914259    0.02%
 999639 159307    infeasible           4862.0000     4861.0000  1914264    0.02%
 999640 159308     4861.0000     8     4862.0000     4861.0000  1914266    0.02%
Elapsed time = 72.97 sec. (58201.39 ticks, tree = 45.24 MB, solutions = 22)
 1066352 171071     4861.0000     8     4862.0000     4861.0000  2052336    0.02%
 1066353 171072     4861.0000     7     4862.0000     4861.0000  2052339    0.02%
 1066354 171073     4861.0000     8     4862.0000     4861.0000  2052340    0.02%
 1066355 171074     4861.0000     7     4862.0000     4861.0000  2052343    0.02%
 1066356 171075     4861.0000     8     4862.0000     4861.0000  2052345    0.02%
 1066357 171076     4861.0000     8     4862.0000     4861.0000  2052346    0.02%
 1066358 171077     4861.0000     8     4862.0000     4861.0000  2052347    0.02%
 1066359 171078     4861.0000     8     4862.0000     4861.0000  2052348    0.02%
 1066360 171079     4861.0000     8     4862.0000     4861.0000  2052349    0.02%
 1066361 171079     4861.0000     8     4862.0000     4861.0000  2052350    0.02%
Elapsed time = 77.65 sec. (62016.37 ticks, tree = 48.07 MB, solutions = 22)
 1131313 180900    infeasible           4862.0000     4861.0000  2183791    0.02%
 1131314 180899    infeasible           4862.0000     4861.0000  2183793    0.02%
 1131315 180898    infeasible           4862.0000     4861.0000  2183795    0.02%
 1131316 180897    infeasible           4862.0000     4861.0000  2183798    0.02%
 1131317 180896    infeasible           4862.0000     4861.0000  2183800    0.02%
 1131318 180895    infeasible           4862.0000     4861.0000  2183804    0.02%
 1131319 180896     4861.0000     8     4862.0000     4861.0000  2183806    0.02%
 1131320 180897     4861.0000     6     4862.0000     4861.0000  2183807    0.02%
 1131321 180898     4861.0000     8     4862.0000     4861.0000  2183809    0.02%
 1131322 180899     4861.0000     8     4862.0000     4861.0000  2183814    0.02%
Elapsed time = 82.31 sec. (65831.82 ticks, tree = 50.43 MB, solutions = 22)
 1194620 187470     4861.0000     6     4862.0000     4861.0000  2310069    0.02%
 1194621 187469    infeasible           4862.0000     4861.0000  2310070    0.02%
 1194622 187468    infeasible           4862.0000     4861.0000  2310072    0.02%
 1194623 187467    infeasible           4862.0000     4861.0000  2310076    0.02%
 1194624 187466    infeasible           4862.0000     4861.0000  2310077    0.02%
 1194625 187465    infeasible           4862.0000     4861.0000  2310079    0.02%
 1194626 187464    infeasible           4862.0000     4861.0000  2310080    0.02%
 1194627 187463    infeasible           4862.0000     4861.0000  2310084    0.02%
 1194628 187462    infeasible           4862.0000     4861.0000  2310084    0.02%
 1194629 187461    infeasible           4862.0000     4861.0000  2310085    0.02%
Elapsed time = 86.98 sec. (69647.44 ticks, tree = 52.04 MB, solutions = 22)
 1243531 192429     4861.0000     6     4862.0000     4861.0000  2405890    0.02%
 1243532 192430     4861.0000     6     4862.0000     4861.0000  2405891    0.02%
 1243533 192431     4861.0000     6     4862.0000     4861.0000  2405892    0.02%
 1243534 192432     4861.0000     6     4862.0000     4861.0000  2405893    0.02%
 1243535 192433     4861.0000     6     4862.0000     4861.0000  2405894    0.02%
 1243536 192434     4861.0000     6     4862.0000     4861.0000  2405895    0.02%
 1243537 192435     4861.0000     6     4862.0000     4861.0000  2405896    0.02%
 1243538 192436     4861.0000     6     4862.0000     4861.0000  2405897    0.02%
 1243539 192437     4861.0000     6     4862.0000     4861.0000  2405898    0.02%
 1243540 192438     4861.0000     5     4862.0000     4861.0000  2405899    0.02%
Elapsed time = 91.58 sec. (73483.65 ticks, tree = 54.58 MB, solutions = 22)
 1303428 199590     4861.0000     6     4862.0000     4861.0000  2521796    0.02%
 1303429 199591     4861.0000     6     4862.0000     4861.0000  2521797    0.02%
 1303430 199592     4861.0000     8     4862.0000     4861.0000  2521799    0.02%
 1303431 199593     4861.0000     8     4862.0000     4861.0000  2521800    0.02%
 1303432 199592    infeasible           4862.0000     4861.0000  2521803    0.02%
 1303433 199593     4861.0000     8     4862.0000     4861.0000  2521804    0.02%
 1303434 199592    infeasible           4862.0000     4861.0000  2521804    0.02%
 1303435 199591    infeasible           4862.0000     4861.0000  2521806    0.02%
 1303436 199590    infeasible           4862.0000     4861.0000  2521806    0.02%
 1303437 199589    infeasible           4862.0000     4861.0000  2521808    0.02%
Elapsed time = 96.02 sec. (77298.72 ticks, tree = 56.32 MB, solutions = 22)

Root node processing (before b&c):
  Real time             =    0.01 sec. (6.01 ticks)
Sequential b&c:
  Real time             =   99.99 sec. (80574.83 ticks)
                          ------------
Total (root+branch&cut) =  100.00 sec. (80580.84 ticks)

Solution pool: 22 solutions saved.

MIP - Time limit exceeded, integer feasible:  Objective =  4.8620000000e+03
Current MIP best bound =  4.8610000000e+03 (gap = 1, 0.02%)
Solution time =  100.00 sec.  Iterations = 2625282  Nodes = 1356567 (205220)
Deterministic time = 80580.84 ticks  (805.81 ticks/sec)


Incumbent solution written to file '/tmp/tmpbSxP5u.cplex.sol'.
